94 169 98 141 96 118 95 172 97 162 19 178 120 111 159 29 151 193 1 101 156 30 20 65 131 72 91 181 129 124 62 179 35 79 57 47 31 113 123 114 59 199 58 7 176 93 103 116 24 8 10 122 70 194 130 126 112 186 100 92 192 33 16 74 127 171 39 102 76 22 71 43 99 139 84 51 67 136 48 9 41 132 50 6 75 143 146 175 168 81 198 44 56 164 60 187 142 45 183 5 61 160 32 190 21 133 148 173 40 25 82 110 105 73 195 83 2 13 89 189 154 88 37 49 77 34 108 153 69 80 180 38 42 157 137 145 174 86 68 36 144 196 115 46 23 135 27 170 177 87 55 15 26 140 12 161 185 0 134 149 107 54 117 90 163 121 52 158 182 63 184 128 3 119 4 66 104 11 17 191 53 64 106 165 166 138 152 78 85 28 150 18 167 188 125 155 14 197 147 109 

